0 5158.64
1 5013.81
2 5013.81
3 5013.81
4 4985.76
5 4985.76
6 4985.76
7 4985.76
8 4960.44
9 4960.44
10 4956.96
11 4956.96
12 4956.96
13 4956.96
14 4956.96
15 4956.96
16 4956.96
17 4956.96
18 4956.96
19 4944.51
20 4944.51
21 4944.51
22 4944.51
23 4944.51
24 4944.51
25 4944.51
26 4944.51
27 4944.51
28 4944.51
29 4944.51
30 4944.51
31 4944.51
32 4944.51
33 4944.51
34 4944.51
35 4944.51
36 4943.56
37 4943.56
38 4943.56
39 4943.56
40 4943.56
41 4943.56
42 4943.56
43 4943.56
44 4943.56
45 4943.56
46 4943.56
47 4943.56
48 4943.56
49 4943.56
50 4943.56
51 4943.56
52 4943.56
53 4943.56
54 4943.56
55 4943.56
56 4943.56
57 4943.56
58 4943.56
59 4930.78
60 4930.78
61 4930.78
62 4930.78
63 4930.78
64 4930.78
65 4930.78
66 4930.78
67 4930.78
68 4930.78
69 4926.92
70 4926.92
71 4926.92
72 4926.92
73 4926.92
74 4926.92
75 4926.92
76 4926.92
77 4926.92
78 4926.92
79 4926.92
80 4926.92
81 4926.92
82 4926.92
83 4921.86
84 4921.86
85 4921.86
86 4921.86
87 4921.86
88 4921.86
89 4921.86
90 4921.86
91 4921.86
92 4921.86
93 4896.78
94 4896.78
95 4896.78
96 4896.78
97 4854.30
98 4854.30
99 4854.30
100 4854.30
101 4854.30
102 4854.30
103 4854.29
104 4854.29
105 4854.29
106 4854.29
107 4854.29
108 4854.29
109 4851.24
110 4851.24
111 4851.24
112 4851.24
113 4851.24
114 4851.24
115 4851.24
116 4848.34
117 4848.34
118 4848.34
119 4848.34
120 4848.34
121 4848.34
122 4848.34
123 4848.34
124 4848.34
125 4848.34
126 4848.34
127 4848.34
128 4848.34
129 4848.34
130 4848.34
131 4848.34
132 4848.34
133 4846.45
134 4846.45
135 4846.45
136 4846.45
137 4846.45
138 4846.45
139 4846.45
140 4846.45
141 4846.45
142 4846.45
143 4846.45
144 4846.45
145 4846.45
146 4846.45
147 4846.45
148 4846.45
149 4846.45
150 4846.45
151 4846.45
152 4846.45
153 4846.45
154 4846.45
155 4846.45
156 4846.45
157 4846.45
158 4846.45
159 4846.45
160 4846.45
161 4846.45
162 4846.45
163 4846.45
164 4840.62
165 4840.62
166 4840.62
167 4840.62
168 4840.62
169 4840.62
170 4840.62
171 4840.62
172 4840.62
173 4840.62
174 4840.62
175 4840.62
176 4840.62
177 4840.62
178 4840.62
179 4840.62
180 4840.62
181 4814.83
182 4814.83
183 4814.83
184 4814.83
185 4814.83
186 4814.83
187 4814.83
188 4814.83
189 4814.83
190 4814.83
191 4814.83
192 4814.83
193 4814.83
194 4814.83
195 4814.83
196 4814.83
197 4814.83
198 4814.83
199 4814.83
200 4814.83
201 4804.51
202 4800.66
203 4800.66
204 4800.66
205 4800.66
206 4800.66
207 4800.66
208 4800.66
209 4800.66
210 4800.66
211 4800.66
212 4800.66
213 4800.66
214 4800.66
215 4800.66
216 4798.52
217 4798.52
218 4798.52
219 4798.52
220 4798.52
221 4798.52
222 4798.52
223 4798.52
224 4798.52
225 4798.52
226 4798.52
227 4798.52
228 4798.52
229 4798.52
230 4798.52
231 4798.52
232 4798.52
233 4798.52
234 4798.52
235 4798.52
236 4798.52
237 4797.18
238 4797.18
239 4797.18
240 4797.18
241 4797.18
242 4797.18
243 4797.18
244 4797.18
245 4797.18
246 4797.18
247 4797.18
248 4797.18
249 4797.18
250 4797.18
251 4797.18
252 4797.18
253 4797.18
254 4797.18
255 4797.18
256 4797.18
257 4797.18
258 4797.18
259 4797.18
260 4797.18
261 4797.18
262 4797.18
263 4797.18
264 4797.18
265 4797.18
266 4797.18
267 4797.18
268 4797.18
269 4797.18
270 4797.18
271 4796.12
272 4796.12
273 4796.12
274 4796.12
275 4796.12
276 4796.12
277 4796.12
278 4796.12
279 4796.12
280 4796.12
281 4796.12
282 4796.12
283 4796.12
284 4796.12
285 4796.12
286 4796.12
287 4796.12
288 4796.12
289 4796.12
290 4796.12
291 4796.12
292 4796.12
293 4796.12
294 4796.12
295 4796.12
296 4796.12
297 4796.12
298 4796.12
299 4796.12
300 4796.12
301 4796.12
302 4796.12
303 4796.12
304 4796.12
305 4796.12
306 4796.12
307 4796.12
308 4796.12
309 4796.12
310 4796.12
311 4796.12
312 4796.12
313 4796.12
314 4796.12
315 4796.12
316 4796.12
317 4796.12
318 4796.12
319 4796.12
320 4796.12
321 4796.12
322 4796.12
323 4796.12
324 4796.12
325 4796.12
326 4796.12
327 4796.12
328 4796.12
329 4796.12
330 4796.12
331 4796.12
332 4790.15
333 4790.15
334 4790.15
335 4790.15
336 4790.15
337 4790.15
338 4790.15
339 4790.15
340 4790.15
341 4790.15
342 4790.15
343 4790.15
344 4790.15
345 4790.15
346 4790.15
347 4790.15
348 4790.15
349 4790.15
350 4790.15
351 4790.15
352 4790.15
353 4790.15
354 4790.15
355 4790.15
356 4790.15
357 4790.15
358 4790.15
359 4790.15
360 4790.15
361 4790.15
362 4790.15
363 4790.15
364 4790.15
365 4790.15
366 4790.15
367 4790.15
368 4790.15
369 4790.15
370 4790.15
371 4790.15
372 4790.15
373 4790.15
374 4790.15
375 4790.15
376 4790.15
377 4790.15
378 4790.15
379 4790.15
380 4790.15
381 4790.15
382 4790.15
383 4790.15
384 4790.15
385 4790.15
386 4790.15
387 4790.15
388 4790.15
389 4790.15
390 4790.15
391 4790.15
392 4790.15
393 4790.15
394 4790.15
395 4790.15
396 4790.15
397 4789.97
398 4789.97
399 4789.97
400 4789.97
401 4789.97
402 4789.97
403 4789.97
404 4789.97
405 4789.97
406 4789.97
407 4789.97
408 4789.97
409 4789.97
410 4789.97
411 4789.97
412 4789.97
413 4789.97
414 4789.97
415 4789.97
416 4789.97
417 4789.97
418 4789.97
419 4789.97
420 4789.97
421 4789.97
422 4789.97
423 4789.97
424 4789.97
425 4789.97
426 4789.97
427 4789.97
428 4789.97
429 4789.97
430 4789.97
431 4789.97
432 4789.97
433 4789.97
434 4789.97
435 4789.97
436 4789.97
437 4789.97
438 4789.97
439 4789.97
440 4789.97
441 4789.97
442 4789.97
443 4789.97
444 4789.97
445 4789.97
446 4789.97
447 4789.97
448 4789.97
449 4789.97
450 4789.97
451 4789.97
452 4789.97
453 4789.97
454 4789.97
455 4789.97
456 4789.97
457 4789.97
458 4789.97
459 4789.97
460 4789.97
461 4789.97
462 4789.97
463 4789.97
464 4789.97
465 4789.97
466 4789.97
467 4789.97
468 4789.97
469 4789.97
470 4789.97
471 4789.97
472 4789.97
473 4789.97
474 4789.97
475 4789.97
476 4789.97
477 4789.97
478 4789.97
479 4789.97
480 4789.97
481 4789.97
482 4789.97
483 4789.97
484 4789.97
485 4789.97
486 4789.97
487 4789.97
488 4789.97
489 4789.97
490 4789.97
491 4789.97
492 4789.97
493 4789.97
494 4789.97
495 4789.97
496 4789.97
497 4789.97
498 4789.97
499 4789.97
2 6 8 4 0 0 